# Solution for model GasLib-40
# Objective value = 2.9963268844826871e+01
loadshed[innode_1] 0
loadshed[innode_2] 0
loadshed[innode_3] 0
loadshed[innode_4] 0
loadshed[innode_5] 0
loadshed[innode_6] 0
loadshed[innode_7] 0
loadshed[innode_8] 0
loadshed[source_1] -1.9418544032826879e-01
loadshed[source_2] 1.7642499521382704e-01
loadshed[source_3] 2.0729309232075810e-01
loadshed[sink_1] 0
loadshed[sink_2] 0
loadshed[sink_3] 0
loadshed[sink_4] 0
loadshed[sink_5] 0
loadshed[sink_6] 0
loadshed[sink_7] 0
loadshed[sink_8] 0
loadshed[sink_9] 0
loadshed[sink_10] 0
loadshed[sink_11] 0
loadshed[sink_12] 1
loadshed[sink_13] 0
loadshed[sink_14] 0
loadshed[sink_15] 0
loadshed[sink_16] 0
loadshed[sink_17] 0
loadshed[sink_18] 0
loadshed[sink_19] 0
loadshed[sink_20] 0
loadshed[sink_21] 8.3214892299578314e-01
loadshed[sink_22] 0
loadshed[sink_23] 0
loadshed[sink_24] 0
loadshed[sink_25] 0
loadshed[sink_26] 0
loadshed[sink_27] 0
loadshed[sink_28] 0
loadshed[sink_29] 0
flow[source_1,sink_3] 1.8878910797967387e+02
flow[innode_1,sink_16] 1.6354166666666970e+01
flow[innode_6,sink_13] -1.0840088564707614e+01
flow[sink_13,sink_14] -2.7194255231374282e+01
flow[sink_14,sink_10] -4.3548421898040949e+01
flow[sink_25,sink_26] 9.8125000000000341e+01
flow[sink_26,sink_9] 8.1770833333333655e+01
flow[sink_9,sink_18] 6.5416666666666671e+01
flow[sink_26,sink_4] 0
flow[sink_4,sink_20] -4.9512498819968030e+01
flow[sink_18,sink_6] 4.9062500000000313e+01
flow[sink_25,innode_8] -1.5608077464633752e+02
flow[sink_6,sink_7] 0
flow[sink_6,sink_22] 3.2708333333333641e+01
flow[sink_7,sink_24] 1.9099231155173122e+01
flow[sink_22,sink_1] 1.6354166666666970e+01
flow[sink_24,sink_21] 2.7450644885064630e+00
flow[sink_21,sink_12] 0
flow[sink_7,sink_5] -3.5453397821839793e+01
flow[sink_5,sink_17] -5.1807564488506458e+01
flow[sink_17,sink_4] -3.3158332153301359e+01
flow[sink_17,sink_8] -3.5003399001871770e+01
flow[sink_3,sink_23] 16.3541666666697
flow[sink_8,sink_20] -5.1357565668538442e+01
flow[sink_25,sink_20] 1.1722423115517313e+02
flow[sink_25,sink_15] -6.4782534610795054e+01
flow[sink_15,sink_29] -9.7490867944145975e+01
flow[sink_29,sink_28] 1.6354166666667879e+01
flow[sink_29,sink_2] 0
flow[sink_2,sink_15] -1.6354166666684250e+01
flow[sink_29,innode_7] -1.3019920127748074e+02
flow[innode_4,sink_19] 4.8833207903501147e+01
flow[sink_19,innode_3] 4.5193738975755323e+01
flow[innode_4,innode_5] 7.6486047327873450e+01
flow[sink_27,innode_5] -7.6486047327873450e+01
flow[sink_27,sink_19] 6.0131880661206779e+01
flow[sink_10,sink_11] 3.2708333333333641e+01
flow[sink_10,innode_2] -4.7417182922285932e+01
flow[sink_10,innode_3] -4.5193738975755323e+01
flow[innode_6,sink_25] 1.0840088564707614e+01
flow[sink_11,innode_1] 1.6354166666666970e+01
flow[sink_19,innode_2] 4.7417182922285932e+01
flow[source_3,innode_4] 1.2531925523137460e+02
flow[source_2,innode_7] 1.3019920127748074e+02
flow[sink_3,innode_8] 1.5608077464633752e+02
pressure[innode_1] 7.6376997055680448e+01
pressure[innode_2] 7.9034892320106252e+01
pressure[innode_3] 78.9348159027802
pressure[innode_4] 81.01325
pressure[innode_5] 8.0960638863526128e+01
pressure[innode_6] 7.4360493122963987e+01
pressure[innode_7] 81.01325
pressure[innode_8] 8.0382200132077259e+01
pressure[source_1] 81.01325
pressure[source_2] 81.01325
pressure[source_3] 81.01325
pressure[sink_1] 5.6777249165023775e+01
pressure[sink_2] 7.4621358791576128e+01
pressure[sink_3] 8.0382200132077259e+01
pressure[sink_4] 4.2782127711177409e+01
pressure[sink_5] 3.7655636513936940e+01
pressure[sink_6] 5.8878326775411153e+01
pressure[sink_7] 2.2910845605814256e+01
pressure[sink_8] 4.2835694773433836e+01
pressure[sink_9] 6.2555411578869439e+01
pressure[sink_10] 76.528698363284
pressure[sink_11] 7.6376997055680448e+01
pressure[sink_12] 1.01325
pressure[sink_13] 7.4420252719674124e+01
pressure[sink_14] 7.4468919155849022e+01
pressure[sink_15] 7.4674751541342573e+01
pressure[sink_16] 7.5355347220862768e+01
pressure[sink_17] 4.1514925592498770e+01
pressure[sink_18] 6.0188441603670782e+01
pressure[sink_19] 7.9034892320106252e+01
pressure[sink_20] 4.6414594845164956e+01
pressure[sink_21] 1.01325
pressure[sink_22] 5.7841018307378789e+01
pressure[sink_23] 8.0217482120417472e+01
pressure[sink_24] 1.0436490387411244e+00
pressure[sink_25] 7.4360493122963987e+01
pressure[sink_26] 6.7449606998580791e+01
pressure[sink_27] 8.0325946001723750e+01
pressure[sink_28] 7.7235649146995215e+01
pressure[sink_29] 7.7530931420612390e+01
interdiction[source_1,sink_3] 0
interdiction[innode_1,sink_16] 0
interdiction[innode_6,sink_13] 0
interdiction[sink_13,sink_14] 0
interdiction[sink_14,sink_10] 0
interdiction[sink_25,sink_26] 0
interdiction[sink_26,sink_9] 0
interdiction[sink_9,sink_18] 0
interdiction[sink_26,sink_4] 1
interdiction[sink_4,sink_20] 0
interdiction[sink_18,sink_6] 0
interdiction[sink_25,innode_8] 0
interdiction[sink_6,sink_7] 1
interdiction[sink_6,sink_22] 0
interdiction[sink_7,sink_24] 0
interdiction[sink_22,sink_1] 0
interdiction[sink_24,sink_21] 0
interdiction[sink_21,sink_12] 0
interdiction[sink_7,sink_5] 0
interdiction[sink_5,sink_17] 0
interdiction[sink_17,sink_4] 0
interdiction[sink_17,sink_8] 0
interdiction[sink_3,sink_23] 0
interdiction[sink_8,sink_20] 0
interdiction[sink_25,sink_20] 0
interdiction[sink_25,sink_15] 0
interdiction[sink_15,sink_29] 0
interdiction[sink_29,sink_28] 0
interdiction[sink_29,sink_2] 1
interdiction[sink_2,sink_15] 0
interdiction[sink_29,innode_7] 0
interdiction[innode_4,sink_19] 0
interdiction[sink_19,innode_3] 0
interdiction[innode_4,innode_5] 0
interdiction[sink_27,innode_5] 0
interdiction[sink_27,sink_19] 0
interdiction[sink_10,sink_11] 0
interdiction[sink_10,innode_2] 0
interdiction[sink_10,innode_3] 0
interdiction[innode_6,sink_25] 0
interdiction[sink_11,innode_1] 0
interdiction[sink_19,innode_2] 0
interdiction[source_3,innode_4] 0
interdiction[source_2,innode_7] 0
interdiction[sink_3,innode_8] 0
WCcheckFlow[source_1,sink_3] 39
WCcheckFlow[innode_1,sink_16] 1
WCcheckFlow[innode_6,sink_13] 13
WCcheckFlow[sink_13,sink_14] 12
WCcheckFlow[sink_14,sink_10] 11
WCcheckFlow[sink_25,sink_26] 6
WCcheckFlow[sink_26,sink_9] 5
WCcheckFlow[sink_9,sink_18] 4
WCcheckFlow[sink_26,sink_4] 0
WCcheckFlow[sink_4,sink_20] -8
WCcheckFlow[sink_18,sink_6] 3
WCcheckFlow[sink_25,innode_8] -36
WCcheckFlow[sink_6,sink_7] 0
WCcheckFlow[sink_6,sink_22] 2
WCcheckFlow[sink_7,sink_24] 3
WCcheckFlow[sink_22,sink_1] 1
WCcheckFlow[sink_24,sink_21] 2
WCcheckFlow[sink_21,sink_12] 1
WCcheckFlow[sink_7,sink_5] -4
WCcheckFlow[sink_5,sink_17] -5
WCcheckFlow[sink_17,sink_4] -7
WCcheckFlow[sink_17,sink_8] 1
WCcheckFlow[sink_3,sink_23] 1
WCcheckFlow[sink_8,sink_20] 0
WCcheckFlow[sink_25,sink_20] 9
WCcheckFlow[sink_25,sink_15] 6
WCcheckFlow[sink_15,sink_29] 4
WCcheckFlow[sink_29,sink_28] 1
WCcheckFlow[sink_29,sink_2] 0
WCcheckFlow[sink_2,sink_15] -1
WCcheckFlow[sink_29,innode_7] 2
WCcheckFlow[innode_4,sink_19] -4
WCcheckFlow[sink_19,innode_3] -5
WCcheckFlow[innode_4,innode_5] 2
WCcheckFlow[sink_27,innode_5] -1
WCcheckFlow[sink_27,sink_19] 0
WCcheckFlow[sink_10,sink_11] 3
WCcheckFlow[sink_10,innode_2] 1
WCcheckFlow[sink_10,innode_3] 6
WCcheckFlow[innode_6,sink_25] -14
WCcheckFlow[sink_11,innode_1] 2
WCcheckFlow[sink_19,innode_2] 0
WCcheckFlow[source_3,innode_4] -1
WCcheckFlow[source_2,innode_7] -1
WCcheckFlow[sink_3,innode_8] 37
